p cnf 25 100
1 -2 -10 0
1 -3 -23 0
16 -1 4 0
1 18 5 0
1 -20 6 0
8 -1 7 0
1 -11 9 0
1 -19 -12 0
1 -13 17 0
-1 14 -25 0
1 -21 -15 0
24 1 -22 0
-2 -3 -22 0
-9 -2 -4 0
2 5 14 0
24 -2 -6 0
2 -19 -7 0
8 2 23 0
-2 -11 20 0
-25 2 12 0
2 18 13 0
16 -2 -15 0
17 -2 21 0
-11 3 -4 0
-9 3 5 0
19 -3 -6 0
3 20 7 0
-8 -3 -12 0
16 -10 3 0
-25 -3 13 0
-3 -14 -15 0
17 -18 -3 0
24 -3 -21 0
-4 5 -7 0
-4 6 15 0
-8 -4 -21 0
10 19 -4 0
-18 -4 12 0
4 13 -23 0
-4 -20 14 0
-24 -17 -4 0
25 4 22 0
11 5 6 0
8 16 -5 0
-10 -12 -5 0
24 13 5 0
5 -22 -15 0
-17 -20 5 0
25 19 -5 0
21 5 23 0
-16 6 7 0
8 -9 6 0
10 18 6 0
-12 21 -6 0
13 -6 -22 0
-23 6 14 0
17 -6 -25 0
-9 17 7 0
-10 11 7 0
12 -13 -7 0
21 -14 7 0
-18 15 7 0
-23 -22 -7 0
24 25 7 0
-8 -17 10 0
-8 24 11 0
-8 19 -13 0
-8 -14 22 0
-8 -20 15 0
8 -25 -18 0
9 -10 21 0
-9 -12 -22 0
-9 13 15 0
-9 -18 -14 0
16 -9 25 0
-9 19 -20 0
24 -9 23 0
-10 -13 -14 0
-24 10 -15 0
10 -20 -22 0
25 -10 -23 0
-11 12 14 0
-21 11 -13 0
-25 11 15 0
16 -19 -11 0
-17 11 23 0
18 11 -22 0
-17 -12 -15 0
-16 -12 -23 0
24 -12 20 0
16 20 -13 0
16 -17 -14 0
-24 -19 14 0
19 23 -15 0
16 -24 -18 0
16 21 -22 0
-17 -19 -22 0
18 19 -21 0
18 20 23 0
25 20 -21 0
